NAME 
ROWS
 N  OBJ
 L  R0      
 L  R1      
 L  R2      
 E  R3      
 E  R4      
 E  R5      
 E  R6      
 E  R7      
 E  R8      
 E  R9      
 E  R10     
 E  R11     
 E  R12     
 E  R13     
 E  R14     
 E  R15     
 E  R16     
 E  R17     
 E  R18     
 E  R19     
 E  R20     
 E  R21     
 E  R22     
 E  R23     
 E  R24     
 E  R25     
 E  R26     
 E  R27     
COLUMNS
    MARKER    'MARKER'                 'INTORG'
    I0(11)    OBJ       -121
    I0(11)    R0        88
    I0(11)    R1        184
    I0(11)    R2        74
    I0(11)    R5        16
    I0(11)    R7        4
    I0(11)    R9        12
    I0(11)    R11       4
    I0(11)    R12       5
    I0(11)    R13       16
    I0(11)    R16       16
    I0(11)    R27       1
    I1(12)    OBJ       68
    I1(12)    R0        -170
    I1(12)    R1        21
    I1(12)    R2        -137
    I1(12)    R3        15
    I1(12)    R4        10
    I1(12)    R5        1
    I1(12)    R12       4
    I1(12)    R13       13
    I1(12)    R14       3
    I1(12)    R15       4
    I1(12)    R17       9
    I1(12)    R27       1
    I2(14)    OBJ       -191
    I2(14)    R0        -182
    I2(14)    R1        17
    I2(14)    R2        -187
    I2(14)    R4        6
    I2(14)    R5        6
    I2(14)    R7        5
    I2(14)    R10       19
    I2(14)    R11       7
    I2(14)    R12       6
    I2(14)    R13       5
    I2(14)    R15       1
    I2(14)    R16       2
    I2(14)    R17       19
    I2(14)    R27       1
    I3(10)    OBJ       -122
    I3(10)    R0        -28
    I3(10)    R1        -194
    I3(10)    R2        72
    I3(10)    R7        3
    I3(10)    R8        9
    I3(10)    R9        7
    I3(10)    R11       5
    I3(10)    R15       18
    I3(10)    R16       10
    I3(10)    R27       1
    I4(11)    OBJ       57
    I4(11)    R0        -45
    I4(11)    R1        -130
    I4(11)    R2        -99
    I4(11)    R3        11
    I4(11)    R5        -1
    I4(11)    R11       8
    I4(11)    R13       13
    I4(11)    R14       2
    I4(11)    R15       13
    I4(11)    R16       2
    I4(11)    R27       1
    I5(13)    OBJ       -104
    I5(13)    R0        153
    I5(13)    R1        -186
    I5(13)    R2        -172
    I5(13)    R3        18
    I5(13)    R4        4
    I5(13)    R7        15
    I5(13)    R9        19
    I5(13)    R12       14
    I5(13)    R13       3
    I5(13)    R14       13
    I5(13)    R15       13
    I5(13)    R17       5
    I5(13)    R27       1
    I6(15)    OBJ       113
    I6(15)    R0        198
    I6(15)    R1        109
    I6(15)    R2        -81
    I6(15)    R3        3
    I6(15)    R5        16
    I6(15)    R6        -1
    I6(15)    R7        16
    I6(15)    R8        15
    I6(15)    R9        8
    I6(15)    R11       -1
    I6(15)    R12       1
    I6(15)    R13       13
    I6(15)    R15       7
    I6(15)    R16       12
    I6(15)    R27       1
    I7(11)    OBJ       -105
    I7(11)    R0        149
    I7(11)    R1        99
    I7(11)    R2        -156
    I7(11)    R4        12
    I7(11)    R5        9
    I7(11)    R8        7
    I7(11)    R9        17
    I7(11)    R10       19
    I7(11)    R12       2
    I7(11)    R15       9
    I7(11)    R27       1
    I8(10)    OBJ       112
    I8(10)    R0        60
    I8(10)    R1        146
    I8(10)    R2        -172
    I8(10)    R3        1
    I8(10)    R5        5
    I8(10)    R11       2
    I8(10)    R14       18
    I8(10)    R15       8
    I8(10)    R17       16
    I8(10)    R27       1
    I9(8)     OBJ       124
    I9(8)     R0        157
    I9(8)     R1        139
    I9(8)     R2        105
    I9(8)     R4        15
    I9(8)     R8        -1
    I9(8)     R15       11
    I9(8)     R17       6
    I9(8)     R27       1
    I10(11)   OBJ       147
    I10(11)   R0        -143
    I10(11)   R1        -184
    I10(11)   R2        83
    I10(11)   R4        1
    I10(11)   R8        19
    I10(11)   R9        7
    I10(11)   R10       3
    I10(11)   R13       14
    I10(11)   R15       7
    I10(11)   R16       16
    I10(11)   R27       1
    I11(6)    OBJ       10
    I11(6)    R0        157
    I11(6)    R1        -50
    I11(6)    R2        -52
    I11(6)    R4        1
    I11(6)    R17       13
    I11(6)    R27       1
    I12(10)   OBJ       152
    I12(10)   R0        75
    I12(10)   R1        55
    I12(10)   R2        -146
    I12(10)   R4        11
    I12(10)   R10       3
    I12(10)   R12       16
    I12(10)   R13       13
    I12(10)   R15       8
    I12(10)   R17       9
    I12(10)   R27       1
    I13(15)   OBJ       2
    I13(15)   R0        154
    I13(15)   R1        140
    I13(15)   R2        29
    I13(15)   R3        4
    I13(15)   R4        17
    I13(15)   R5        19
    I13(15)   R6        16
    I13(15)   R7        10
    I13(15)   R8        16
    I13(15)   R9        3
    I13(15)   R10       8
    I13(15)   R14       1
    I13(15)   R16       17
    I13(15)   R17       16
    I13(15)   R27       1
    I14(9)    OBJ       -99
    I14(9)    R0        186
    I14(9)    R1        -18
    I14(9)    R2        -79
    I14(9)    R3        18
    I14(9)    R9        10
    I14(9)    R12       8
    I14(9)    R13       12
    I14(9)    R14       14
    I14(9)    R27       1
    MARKER    'MARKER'                 'INTEND'
    C15(16)   OBJ       -7
    C15(16)   R0        2
    C15(16)   R1        -9
    C15(16)   R2        -10
    C15(16)   R3        19
    C15(16)   R4        17
    C15(16)   R7        14
    C15(16)   R9        10
    C15(16)   R10       10
    C15(16)   R11       19
    C15(16)   R12       10
    C15(16)   R18       6
    C15(16)   R20       13
    C15(16)   R21       8
    C15(16)   R22       2
    C15(16)   R23       9
    C15(16)   R25       18
    C16(19)   OBJ       -7
    C16(19)   R0        -3
    C16(19)   R1        5
    C16(19)   R2        -8
    C16(19)   R5        19
    C16(19)   R8        17
    C16(19)   R9        8
    C16(19)   R10       2
    C16(19)   R11       15
    C16(19)   R12       10
    C16(19)   R13       14
    C16(19)   R15       12
    C16(19)   R16       15
    C16(19)   R17       13
    C16(19)   R19       12
    C16(19)   R20       5
    C16(19)   R21       19
    C16(19)   R22       15
    C16(19)   R23       12
    C16(19)   R24       12
    C17(16)   OBJ       9
    C17(16)   R0        -1
    C17(16)   R1        -9
    C17(16)   R2        4
    C17(16)   R3        9
    C17(16)   R4        1
    C17(16)   R7        9
    C17(16)   R9        19
    C17(16)   R10       7
    C17(16)   R13       9
    C17(16)   R14       14
    C17(16)   R15       13
    C17(16)   R17       15
    C17(16)   R20       -1
    C17(16)   R22       1
    C17(16)   R24       12
    C17(16)   R26       18
    C18(12)   OBJ       6
    C18(12)   R0        -5
    C18(12)   R2        -1
    C18(12)   R4        3
    C18(12)   R5        19
    C18(12)   R10       18
    C18(12)   R13       17
    C18(12)   R15       16
    C18(12)   R17       9
    C18(12)   R22       19
    C18(12)   R23       12
    C18(12)   R24       9
    C18(12)   R25       1
    C19(18)   OBJ       -10
    C19(18)   R0        -2
    C19(18)   R1        -2
    C19(18)   R2        -6
    C19(18)   R3        13
    C19(18)   R5        11
    C19(18)   R6        3
    C19(18)   R7        6
    C19(18)   R8        13
    C19(18)   R10       10
    C19(18)   R12       8
    C19(18)   R13       -1
    C19(18)   R14       19
    C19(18)   R16       19
    C19(18)   R18       -1
    C19(18)   R20       -1
    C19(18)   R21       9
    C19(18)   R22       4
    C19(18)   R24       3
    C20(16)   OBJ       -1
    C20(16)   R0        1
    C20(16)   R1        8
    C20(16)   R2        8
    C20(16)   R4        19
    C20(16)   R5        10
    C20(16)   R7        10
    C20(16)   R8        3
    C20(16)   R10       9
    C20(16)   R12       9
    C20(16)   R13       7
    C20(16)   R15       1
    C20(16)   R16       3
    C20(16)   R17       4
    C20(16)   R19       11
    C20(16)   R22       13
    C20(16)   R23       16
    C21(15)   OBJ       -1
    C21(15)   R0        -6
    C21(15)   R1        -8
    C21(15)   R2        7
    C21(15)   R6        18
    C21(15)   R7        17
    C21(15)   R8        5
    C21(15)   R9        5
    C21(15)   R11       7
    C21(15)   R12       11
    C21(15)   R15       4
    C21(15)   R16       3
    C21(15)   R17       18
    C21(15)   R18       -1
    C21(15)   R20       5
    C21(15)   R25       18
    C22(16)   OBJ       4
    C22(16)   R0        5
    C22(16)   R1        -2
    C22(16)   R2        9
    C22(16)   R3        3
    C22(16)   R4        19
    C22(16)   R7        4
    C22(16)   R9        8
    C22(16)   R10       4
    C22(16)   R12       12
    C22(16)   R13       15
    C22(16)   R14       5
    C22(16)   R17       3
    C22(16)   R18       9
    C22(16)   R19       14
    C22(16)   R23       8
    C22(16)   R26       15
    C23(14)   OBJ       -10
    C23(14)   R0        6
    C23(14)   R1        -9
    C23(14)   R2        8
    C23(14)   R3        6
    C23(14)   R5        9
    C23(14)   R9        12
    C23(14)   R15       4
    C23(14)   R17       14
    C23(14)   R20       18
    C23(14)   R22       2
    C23(14)   R23       2
    C23(14)   R24       11
    C23(14)   R25       13
    C23(14)   R26       6
    C24(16)   OBJ       3
    C24(16)   R0        5
    C24(16)   R1        -5
    C24(16)   R2        -4
    C24(16)   R4        19
    C24(16)   R7        18
    C24(16)   R9        17
    C24(16)   R10       -1
    C24(16)   R11       7
    C24(16)   R12       -1
    C24(16)   R14       14
    C24(16)   R15       -1
    C24(16)   R16       18
    C24(16)   R17       -1
    C24(16)   R18       4
    C24(16)   R20       9
    C24(16)   R24       13
    C25(1)    R3        1
    C26(1)    R4        1
    C27(1)    R5        1
    C28(1)    R6        1
    C29(1)    R7        1
    C30(1)    R8        1
    C31(1)    R9        1
    C32(1)    R10       1
    C33(1)    R11       1
    C34(1)    R12       1
    C35(1)    R13       1
    C36(1)    R14       1
    C37(1)    R15       1
    C38(1)    R16       1
    C39(1)    R17       1
    C40(1)    R18       1
    C41(1)    R19       1
    C42(1)    R20       1
    C43(1)    R21       1
    C44(1)    R22       1
    C45(1)    R23       1
    C46(1)    R24       1
    C47(1)    R25       1
    C48(1)    R26       1
    C49(1)    R27       1
RHS
    RHS1      R0        2.2002631578947361e+02
    RHS1      R1        68.7763157894738
    RHS1      R2        -2.7242105263157907e+02
    RHS1      R3        64
    RHS1      R4        79
    RHS1      R5        78
    RHS1      R6        91
    RHS1      R7        68
    RHS1      R8        54
    RHS1      R9        67
    RHS1      R10       84
    RHS1      R11       55
    RHS1      R12       51
    RHS1      R13       68
    RHS1      R14       88
    RHS1      R15       68
    RHS1      R16       61
    RHS1      R17       66
    RHS1      R18       62
    RHS1      R19       89
    RHS1      R20       64
    RHS1      R21       54
    RHS1      R22       52
    RHS1      R23       97
    RHS1      R24       51
    RHS1      R25       99
    RHS1      R26       70
    RHS1      R27       5
BOUNDS
 UP BND1      I0(11)    1
 UP BND1      I1(12)    1
 UP BND1      I2(14)    1
 UP BND1      I3(10)    1
 UP BND1      I4(11)    1
 UP BND1      I5(13)    1
 UP BND1      I6(15)    1
 UP BND1      I7(11)    1
 UP BND1      I8(10)    1
 UP BND1      I9(8)     1
 UP BND1      I10(11)   1
 UP BND1      I11(6)    1
 UP BND1      I12(10)   1
 UP BND1      I13(15)   1
 UP BND1      I14(9)    1
ENDATA
